(declare-sort fun1 0)
(declare-sort fun12 0)
(declare-datatype list ((nil) (cons (head Int) (tail list))))
(declare-fun lam (Int) fun12)
(declare-const lam2 fun1)
(declare-fun apply1 (fun1 Int) fun12)
(declare-fun apply12 (fun12 Int) Bool)
(define-fun-rec
  insert2
  ((x Int) (y list)) list
  (match y
    ((nil (cons x nil))
     ((cons z xs)
      (ite (<= x z) (cons x (cons z xs)) (cons z (insert2 x xs)))))))
(define-fun-rec
  isort
  ((x list)) list
  (match x
    ((nil nil)
     ((cons y xs) (insert2 y (isort xs))))))
(define-fun-rec
  elem
  ((x Int) (y list)) Bool
  (match y
    ((nil false)
     ((cons z xs) (or (= z x) (elem x xs))))))
(define-fun-rec
  deleteBy
  ((x fun1) (y Int) (z list)) list
  (match z
    ((nil nil)
     ((cons y2 ys)
      (ite (apply12 (apply1 x y) y2) ys (cons y2 (deleteBy x y ys)))))))
(define-fun-rec
  isPermutation
  ((x list) (y list)) Bool
  (match x
    ((nil
      (match y
        ((nil true)
         ((cons z x2) false))))
     ((cons x3 xs)
      (and (elem x3 y) (isPermutation xs (deleteBy lam2 x3 y)))))))
(assert (forall ((x4 Int)) (= (apply1 lam2 x4) (lam x4))))
(assert
  (forall ((x4 Int) (x5 Int)) (= (apply12 (lam x4) x5) (= x4 x5))))
(assert (not (forall ((xs list)) (isPermutation (isort xs) xs))))
(check-sat)
